db/data/290662069130168290641055013519888911726.z3.out
-------------------
2500.182718418
